objective value:                      1.5098691515685
x(0,7,0)                                            1 	(obj:0)
x(1,3,1)                                            1 	(obj:0)
x(2,0,0)                                            1 	(obj:0)
x(3,7,1)                                            1 	(obj:0)
x(4,5,0)                                            1 	(obj:0)
x(5,12,0)                                           1 	(obj:0)
x(7,4,0)                                            1 	(obj:0)
x(7,18,1)                                           1 	(obj:0)
x(8,1,1)                                            1 	(obj:0)
x(12,2,0)                                           1 	(obj:0)
x(18,8,1)                                           1 	(obj:0)
xc(1,9)                                             1 	(obj:0)
xc(2,12)                                            1 	(obj:0)
xc(3,1)                                             1 	(obj:0)
xc(7,5)                                             1 	(obj:0)
xc(7,8)                                             1 	(obj:0)
u(0,0)                                0.4402088303141 	(obj:0)
u(1,1)                              0.422775888564201 	(obj:0)
u(3,1)                              0.653822750513902 	(obj:0)
u(4,0)                              0.944471886202001 	(obj:0)
u(5,0)                                1.2008004454995 	(obj:0)
u(6,0)                                1.5098691515685 	(obj:0)
u(6,1)                                1.5098691515685 	(obj:0)
u(7,0)                                0.8844860152633 	(obj:0)
u(7,1)                                1.2597483284966 	(obj:0)
u(8,0)                                1.5098691515685 	(obj:0)
u(8,1)                             0.0276545627141012 	(obj:0)
u(9,0)                                1.5098691515685 	(obj:0)
u(10,0)                               1.5098691515685 	(obj:0)
u(10,1)                               1.5098691515685 	(obj:0)
u(11,0)                               1.5098691515685 	(obj:0)
u(11,1)                               1.5098691515685 	(obj:0)
u(12,0)                               1.5098691515685 	(obj:0)
u(12,1)                               1.5098691515685 	(obj:0)
u(13,0)                               1.5098691515685 	(obj:0)
u(13,1)                               1.5098691515685 	(obj:0)
u(14,0)                               1.5098691515685 	(obj:0)
u(14,1)                               1.5098691515685 	(obj:0)
u(15,0)                               1.5098691515685 	(obj:0)
u(15,1)                               1.5098691515685 	(obj:0)
u(16,0)                               1.5098691515685 	(obj:0)
u(16,1)                               1.5098691515685 	(obj:0)
u(17,0)                               1.5098691515685 	(obj:0)
u(17,1)                               1.5098691515685 	(obj:0)
u(18,0)                               1.5098691515685 	(obj:0)
u(18,1)                               1.5098691515685 	(obj:0)
u(19,0)                               1.5098691515685 	(obj:0)
u(19,1)                               1.5098691515685 	(obj:0)
f(0,7,0)                                            1 	(obj:0)
f(0,7,1)                                            1 	(obj:0)
f(0,7,2)                                            1 	(obj:0)
f(0,7,4)                                            1 	(obj:0)
f(1,3,1)                                            1 	(obj:0)
f(1,3,2)                                            1 	(obj:0)
f(1,3,4)                                            1 	(obj:0)
f(1,9,0)                                            1 	(obj:0)
f(1,9,1)                                            1 	(obj:0)
f(1,9,2)                                            1 	(obj:0)
f(1,9,3)                                            1 	(obj:0)
f(1,9,4)                                            1 	(obj:0)
f(2,0,1)                                            1 	(obj:0)
f(2,0,2)                                            1 	(obj:0)
f(2,0,4)                                            1 	(obj:0)
f(3,1,2)                                            1 	(obj:0)
f(3,1,3)                                            1 	(obj:0)
f(3,1,4)                                            1 	(obj:0)
f(3,7,1)                                            1 	(obj:0)
f(4,5,4)                                            1 	(obj:0)
f(5,12,1)                                           1 	(obj:0)
f(5,12,4)                                           1 	(obj:0)
f(7,5,1)                                            1 	(obj:0)
f(7,8,1)                                            1 	(obj:0)
f(7,18,0)                                           1 	(obj:0)
f(7,18,2)                                           1 	(obj:0)
f(7,18,4)                                           1 	(obj:0)
f(8,1,0)                                            1 	(obj:0)
f(8,1,1)                                            1 	(obj:0)
f(8,1,2)                                            1 	(obj:0)
f(8,1,4)                                            1 	(obj:0)
f(12,2,1)                                           1 	(obj:0)
f(12,2,4)                                           1 	(obj:0)
f(18,8,0)                                           1 	(obj:0)
f(18,8,2)                                           1 	(obj:0)
f(18,8,4)                                           1 	(obj:0)
z_r(0,)                               1.5098691515685 	(obj:0)
z_r(1,)                               1.5098691515685 	(obj:0)
z                                     1.5098691515685 	(obj:1)
